(declare-datatypes () ((Edge (mk-edge (src String) (dst String))))) ; to have a type edge to manipulate, Edge is from the record (tuple) theory 
(declare-fun delay ((Edge)) Int) ;a function must be provided or later a restriction that the function must return > 0 
(declare-fun bandwidth ((Edge)) Int)  ; a function must be provided or later a restriction that the function must return > 0 
(declare-const edges (Array Int Edge)) ; an array of edges  
(declare-const nodes (Array Int String)) ; an array of nodes 
(declare-fun edges_size () Int) ; a function must be provided or later a restriction that the function must return > 0 
(declare-fun nodes_size () Int) 
(assert (> edges_size 0) ) ; a restriction on the edge size that must be greater than 0 
(assert (> nodes_size 0) ) 
;; end of initial configuration, starts specific graph configs 
(assert (= (store nodes 1 "n1") nodes))
(assert (= (store nodes 2 "n2") nodes))
(assert (= (store nodes 3 "n3") nodes))
(assert (= (store nodes 4 "n4") nodes))
(assert (= nodes_size 4)) 
(assert (= (store edges 1 (mk-edge "n1" "n2")) edges)) 
(assert (= 3091034 (bandwidth (select edges 1)) ) )
(assert (= 31 (delay (select edges 1)) ) )
(assert (= (store edges 2 (mk-edge "n1" "n3")) edges)) 
(assert (= 1029836 (bandwidth (select edges 2)) ) )
(assert (= 11 (delay (select edges 2)) ) )
(assert (= (store edges 3 (mk-edge "n1" "n4")) edges)) 
(assert (= 3649897 (bandwidth (select edges 3)) ) )
(assert (= 37 (delay (select edges 3)) ) )
(assert (= (store edges 4 (mk-edge "n2" "n1")) edges)) 
(assert (= 8335068 (bandwidth (select edges 4)) ) )
(assert (= 84 (delay (select edges 4)) ) )
(assert (= (store edges 5 (mk-edge "n2" "n3")) edges)) 
(assert (= 9998441 (bandwidth (select edges 5)) ) )
(assert (= 100 (delay (select edges 5)) ) )
(assert (= (store edges 6 (mk-edge "n2" "n4")) edges)) 
(assert (= 3284671 (bandwidth (select edges 6)) ) )
(assert (= 33 (delay (select edges 6)) ) )
(assert (= (store edges 7 (mk-edge "n3" "n1")) edges)) 
(assert (= 1225819 (bandwidth (select edges 7)) ) )
(assert (= 13 (delay (select edges 7)) ) )
(assert (= (store edges 8 (mk-edge "n3" "n2")) edges)) 
(assert (= 4546416 (bandwidth (select edges 8)) ) )
(assert (= 46 (delay (select edges 8)) ) )
(assert (= (store edges 9 (mk-edge "n3" "n4")) edges)) 
(assert (= 988847 (bandwidth (select edges 9)) ) )
(assert (= 10 (delay (select edges 9)) ) )
(assert (= (store edges 10 (mk-edge "n4" "n1")) edges)) 
(assert (= 27262443 (bandwidth (select edges 10)) ) )
(assert (= 273 (delay (select edges 10)) ) )
(assert (= (store edges 11 (mk-edge "n4" "n2")) edges)) 
(assert (= 2169951 (bandwidth (select edges 11)) ) )
(assert (= 22 (delay (select edges 11)) ) )
(assert (= (store edges 12 (mk-edge "n4" "n3")) edges)) 
(assert (= 1894611 (bandwidth (select edges 12)) ) )
(assert (= 19 (delay (select edges 12)) ) )
(assert (= edges_size 12)) 
;; end of graph configuration, propery verification starts
